c *********************************
c * Circuit generated by BenCGen
c *
c * Parity_40
c *
c * Ports with 1 gate(s): 1
c * Ports with 2 gate(s): 40
c * Total gates: 41
c *********************************
p cnf 81 161
1 43 0
-1 -43 0
1 -42 0
43 -42 0
-1 -43 42 0
1 2 -44 0
-1 2 44 0
1 -2 44 0
-1 -2 -44 0
3 4 -45 0
-3 4 45 0
3 -4 45 0
-3 -4 -45 0
5 6 -46 0
-5 6 46 0
5 -6 46 0
-5 -6 -46 0
7 8 -47 0
-7 8 47 0
7 -8 47 0
-7 -8 -47 0
9 10 -48 0
-9 10 48 0
9 -10 48 0
-9 -10 -48 0
11 12 -49 0
-11 12 49 0
11 -12 49 0
-11 -12 -49 0
13 14 -50 0
-13 14 50 0
13 -14 50 0
-13 -14 -50 0
15 16 -51 0
-15 16 51 0
15 -16 51 0
-15 -16 -51 0
17 18 -52 0
-17 18 52 0
17 -18 52 0
-17 -18 -52 0
19 20 -53 0
-19 20 53 0
19 -20 53 0
-19 -20 -53 0
21 22 -54 0
-21 22 54 0
21 -22 54 0
-21 -22 -54 0
23 24 -55 0
-23 24 55 0
23 -24 55 0
-23 -24 -55 0
25 26 -56 0
-25 26 56 0
25 -26 56 0
-25 -26 -56 0
27 28 -57 0
-27 28 57 0
27 -28 57 0
-27 -28 -57 0
29 30 -58 0
-29 30 58 0
29 -30 58 0
-29 -30 -58 0
31 32 -59 0
-31 32 59 0
31 -32 59 0
-31 -32 -59 0
33 34 -60 0
-33 34 60 0
33 -34 60 0
-33 -34 -60 0
35 36 -61 0
-35 36 61 0
35 -36 61 0
-35 -36 -61 0
37 38 -62 0
-37 38 62 0
37 -38 62 0
-37 -38 -62 0
39 40 -63 0
-39 40 63 0
39 -40 63 0
-39 -40 -63 0
44 45 -64 0
-44 45 64 0
44 -45 64 0
-44 -45 -64 0
46 47 -65 0
-46 47 65 0
46 -47 65 0
-46 -47 -65 0
48 49 -66 0
-48 49 66 0
48 -49 66 0
-48 -49 -66 0
50 51 -67 0
-50 51 67 0
50 -51 67 0
-50 -51 -67 0
52 53 -68 0
-52 53 68 0
52 -53 68 0
-52 -53 -68 0
54 55 -69 0
-54 55 69 0
54 -55 69 0
-54 -55 -69 0
56 57 -70 0
-56 57 70 0
56 -57 70 0
-56 -57 -70 0
58 59 -71 0
-58 59 71 0
58 -59 71 0
-58 -59 -71 0
60 61 -72 0
-60 61 72 0
60 -61 72 0
-60 -61 -72 0
62 63 -73 0
-62 63 73 0
62 -63 73 0
-62 -63 -73 0
64 65 -74 0
-64 65 74 0
64 -65 74 0
-64 -65 -74 0
66 67 -75 0
-66 67 75 0
66 -67 75 0
-66 -67 -75 0
68 69 -76 0
-68 69 76 0
68 -69 76 0
-68 -69 -76 0
70 71 -77 0
-70 71 77 0
70 -71 77 0
-70 -71 -77 0
72 73 -78 0
-72 73 78 0
72 -73 78 0
-72 -73 -78 0
74 75 -79 0
-74 75 79 0
74 -75 79 0
-74 -75 -79 0
76 77 -80 0
-76 77 80 0
76 -77 80 0
-76 -77 -80 0
79 80 -81 0
-79 80 81 0
79 -80 81 0
-79 -80 -81 0
81 78 -41 0
-81 78 41 0
81 -78 41 0
-81 -78 -41 0
